[[53, 11, 66, 65, 38, 10, 58, 72, 31, 39, 9, 25, 55, 18, 50], [32, 44, 3, 40, 12, 17, 51, 6, 33, 63, 16, 49, 24], [23, 56, 43, 41, 42, 64, 22, 62, 73, 2, 74, 28, 61, 21], [69, 36, 71, 60, 70, 20, 37, 5, 47, 48, 30, 29, 45, 15, 57, 13], [27, 52, 46, 34, 4, 68, 75, 76, 26, 67, 7, 35, 8, 54, 19, 14, 59]]